# Solution for model r10_t9_m4_7
# Finished Task: 9 / 9
# Makespan: 458.0, Total Distance: 97.0, Total Time: 2.5690
# R O S F
0 0 14 0.0 0.0
1 1 -1 0.0 0.0
2 2 -1 0.0 0.0
3 3 13 0.0 0.0
4 4 18 0.0 0.0
5 5 -1 0.0 0.0
6 6 12 0.0 0.0
7 7 10 0.0 0.0
8 8 11 0.0 0.0
9 9 16 17.0 17.0
10 7 17 193.0 222.0
11 8 -1 310.0 333.0
12 6 -1 433.0 458.0
13 3 -1 333.0 365.0
14 0 -1 365.0 398.0
15 9 -1 398.0 433.0
16 9 15 28.0 55.0
17 7 -1 347.0 384.0
18 4 -1 222.0 250.0
